************************************************************************
file with basedata            : md340_.bas
initial value random generator: 448557781
************************************************************************
projects                      :  1
jobs (incl. supersource/sink ):  22
horizon                       :  147
RESOURCES
  - renewable                 :  2   R
  - nonrenewable              :  2   N
  - doubly constrained        :  0   D
************************************************************************
PROJECT INFORMATION:
pronr.  #jobs rel.date duedate tardcost  MPM-Time
    1     20      0       17       12       17
************************************************************************
PRECEDENCE RELATIONS:
jobnr.    #modes  #successors   successors
   1        1          3           2   3   4
   2        3          3          13  15  16
   3        3          3           5   6   7
   4        3          3          14  17  19
   5        3          2          13  14
   6        3          2          12  17
   7        3          3           8   9  20
   8        3          2          12  14
   9        3          1          10
  10        3          3          11  15  16
  11        3          2          12  18
  12        3          1          19
  13        3          1          20
  14        3          2          15  18
  15        3          1          21
  16        3          2          19  21
  17        3          2          18  20
  18        3          1          21
  19        3          1          22
  20        3          1          22
  21        3          1          22
  22        1          0        
************************************************************************
REQUESTS/DURATIONS:
jobnr. mode duration  R 1  R 2  N 1  N 2
------------------------------------------------------------------------
  1      1     0       0    0    0    0
  2      1     4       0    6    7    0
         2     5       0    4    4    0
         3    10       8    0    0    5
  3      1     2       0    4    0    8
         2     3       5    0    0    7
         3     8       0    3    8    0
  4      1     4       0    4    0   10
         2     4       7    0    0    9
         3     5       6    0    0    8
  5      1     4       0    7    5    0
         2     8       0    6    0    7
         3    10       3    0    5    0
  6      1     3       9    0    4    0
         2     5       7    0    4    0
         3     8       0    7    0    2
  7      1     2       0    6    8    0
         2     5       9    0    7    0
         3     7       7    0    0    8
  8      1     4       5    0    7    0
         2     5       0    4    3    0
         3    10       3    0    0    8
  9      1     2       3    0    4    0
         2     2       4    0    0    9
         3     2       6    0    2    0
 10      1     2       5    0    4    0
         2     4       4    0    0    5
         3     5       2    0    1    0
 11      1     2       2    0    0    3
         2     4       0    8    0    2
         3     7       2    0    6    0
 12      1     5       6    0    0    9
         2     6       0    8    0    9
         3     8       0    5   10    0
 13      1     3       0    9    6    0
         2     4       5    0    0    4
         3     5       0    4    0    4
 14      1     4       0    4    7    0
         2     8       9    0    0    7
         3    10       7    0    2    0
 15      1     2       7    0    0    8
         2     4       5    0    8    0
         3     7       0    8    0    7
 16      1     2       6    0    0    8
         2     5       0    8    5    0
         3     7       3    0    0    7
 17      1     6       7    0    7    0
         2     9       7    0    0    4
         3    10       0    3    5    0
 18      1     1       0    3   10    0
         2     5       5    0    6    0
         3     6       0    3    2    0
 19      1     1      10    0    0    6
         2     6       0    6   10    0
         3     7       5    0    0    4
 20      1     3       0    3    4    0
         2     5       4    0    2    0
         3     7       0    3    0    5
 21      1     3       0    8    0    7
         2     6       8    0    0    6
         3     8       4    0    7    0
 22      1     0       0    0    0    0
************************************************************************
RESOURCEAVAILABILITIES:
  R 1  R 2  N 1  N 2
   36   36   96   94
************************************************************************
MAXIMAL LAGS:
from  to  type  delay
    1   22   ES      0
    1    2   ES      0
    2   22   ES      0
    1    3   ES      0
    3   22   ES      0
    1    4   ES      0
    4   22   ES      0
    1    5   ES      0
    5   22   ES      0
    1    6   ES      0
    6   22   ES      0
    1    7   ES      0
    7   22   ES      0
    1    8   ES      0
    8   22   ES      0
    1    9   ES      0
    9   22   ES      0
    1   10   ES      0
   10   22   ES      0
    1   11   ES      0
   11   22   ES      0
    1   12   ES      0
   12   22   ES      0
    1   13   ES      0
   13   22   ES      0
    1   14   ES      0
   14   22   ES      0
    1   15   ES      0
   15   22   ES      0
    1   16   ES      0
   16   22   ES      0
    1   17   ES      0
   17   22   ES      0
    1   18   ES      0
   18   22   ES      0
    1   19   ES      0
   19   22   ES      0
    1   20   ES      0
   20   22   ES      0
    1   21   ES      0
   21   22   ES      0
    1   22   ES      0
    2   13   SS    -12
    2   13   SE      5
    2   13   ES    -12
    2   13   EE      4
    2   15   SS      4
    2   15   SE     12
    2   15   ES     -8
    2   15   EE     -6
    2   16   SS     -1
    2   16   SE     -9
    2   16   ES     -6
    2   16   EE    -12
    3    5   SS     -2
    3    5   SE     -8
    3    5   ES     -5
    3    5   EE    -10
    3    6   SS     11
    3    6   SE     10
    3    6   ES     -8
    3    6   EE     -4
    3    7   SS     -4
    3    7   SE      3
    3    7   ES     -6
    3    7   EE    -10
    4   14   SS     -1
    4   14   SE     10
    4   14   ES      5
    4   14   EE      8
    4   17   SS     -3
    4   17   SE      2
    4   17   ES     11
    4   17   EE      3
    4   19   SS      1
    4   19   SE      4
   19    4   SE      0
    4   19   ES      0
    4   19   EE     -6
    5   13   SS     -4
    5   13   SE     -7
    5   13   ES     -6
    5   13   EE      9
    5   14   SS     10
    5   14   SE     -4
    5   14   ES      0
    5   14   EE     -9
    6   12   SS      6
    6   12   SE     12
    6   12   ES      6
    6   12   EE     -3
    6   17   SS     -7
    6   17   SE     -6
    6   17   ES     11
    6   17   EE      3
    7    8   SS      1
    7    8   SE      2
    7    8   ES      1
    7    8   EE      7
    7    9   SS     11
    7    9   SE     -4
    7    9   ES     -2
    7    9   EE      7
    7   20   SS     -9
    7   20   SE      7
    7   20   ES      0
    7   20   EE      1
    8   12   SS     -6
    8   12   SE      6
    8   12   ES     -1
    8   12   EE     -1
    8   14   SS      8
    8   14   SE    -10
    8   14   ES      2
    8   14   EE     -7
    9   10   SS    -11
    9   10   SE      4
    9   10   ES     -4
    9   10   EE      6
   10   11   SS      1
   10   11   SE     -3
   10   11   ES      7
   10   11   EE      8
   10   15   SS      4
   10   15   SE     -1
   10   15   ES      0
   10   15   EE    -12
   10   16   SS     -9
   10   16   SE     -7
   10   16   ES     -2
   10   16   EE      1
   11   12   SS     -7
   11   12   SE     -1
   11   12   ES     -5
   11   12   EE    -10
   11   18   SS     -6
   11   18   SE      9
   11   18   ES     -1
   11   18   EE     -1
   12   19   SS     -8
   12   19   SE     12
   12   19   ES     -2
   12   19   EE     -9
   13   20   SS    -12
   13   20   SE     -2
   13   20   ES     10
   13   20   EE    -12
   14   15   SS     10
   14   15   SE     -2
   14   15   ES     -6
   14   15   EE      2
   14   18   SS      6
   14   18   SE     -2
   14   18   ES     -5
   14   18   EE      5
   15   21   SS    -10
   15   21   SE      0
   15   21   ES     -3
   15   21   EE      7
   16   19   SS     -6
   16   19   SE      4
   16   19   ES     -6
   16   19   EE     -9
   16   21   SS      5
   16   21   SE     -4
   16   21   ES     10
   16   21   EE      7
   17   18   SS      9
   17   18   SE    -10
   17   18   ES      6
   17   18   EE      8
   17   20   SS      1
   17   20   SE      9
   17   20   ES     12
   17   20   EE      1
   18   21   SS     -2
   18   21   SE     -2
   18   21   ES     -6
   18   21   EE     -6
************************************************************************
